SCIP version 5.0.0 [precision: 8 byte] [memory: block] [mode: optimized] [LP solver: NONE] [GitHash: 3bbd232]
Copyright (C) 2002-2017 Konrad-Zuse-Zentrum fuer Informationstechnik Berlin (ZIB)

External codes: 
  Readline EditLine w  GNU library for command line editing (gnu.org/s/readline)
  CppAD 20160000.1     Algorithmic Differentiation of C++ algorithms developed by B. Bell (www.coin-or.org/CppAD)
  ZLIB 1.2.5           General purpose compression library by J. Gailly and M. Adler (zlib.net)
  GMP 6.1.2            GNU Multiple Precision Arithmetic Library developed by T. Granlund (gmplib.org)

user parameter file <scip.set> not found - using default parameters

read problem <../../Split_data/output/biodeg/5/0_sample_biodeg.logreg>
============

File name	:	../../Split_data/output/biodeg/5/0_sample_biodeg.logreg
Problem name 	:	0_sample_biodeg
Number of data	:	844
Number of var	:	41
The given data has linear dependence
1 sets of column vector are linearly dependent:
{ 19}, 

[dim=1] time: 0.027098
[dim=2] time: 0.056522
[dim=3] time: 0.089778
[dim=4] time: 0.123381
[dim=5] time: 0.154377
[dim=6] time: 0.189829
[dim=7] time: 0.22115
[dim=8] time: 0.248925
[dim=9] time: 0.278051
[dim=10] time: 0.305832
[dim=11] time: 0.337263
[dim=12] time: 0.362204
[dim=13] time: 0.385055
[dim=14] time: 0.401465
[dim=15] time: 0.416829
[dim=16] time: 0.43622
[dim=17] time: 0.454322
[dim=18] time: 0.475688
[dim=19] time: 0.492642
[dim=20] time: 0.507926
[dim=21] Time of forward = 0.524735sec.
AIC: 484.366
k: 20

[dim=40] time: 0.155331
[dim=39] time: 0.230708
[dim=38] time: 0.273047
[dim=37] time: 0.314242
[dim=36] time: 0.368467
[dim=35] time: 0.40977
[dim=34] time: 0.445389
[dim=33] time: 0.480526
[dim=32] time: 0.524178
[dim=31] time: 0.559694
[dim=30] time: 0.593954
[dim=29] time: 0.630535
[dim=28] time: 0.658049
[dim=27] time: 0.685916
[dim=26] time: 0.732168
[dim=25] time: 0.753887
[dim=24] time: 0.776255
[dim=23] time: 0.798102
[dim=22] time: 0.819647
[dim=21] time: 0.838184
[dim=20] Time of backward = 0.863073sec.
AIC: 481.283
k: 21
